c Sudoku solution
p cnf 729 0
138 0
197 0
236 0
243 0
288 0
341 0
365 0
358 0
386 0
428 0
433 0
449 0
519 0
527 0
551 0
575 0
682 0
726 0
737 0
317 0
762 0
818 0
859 0
914 0
966 0
861 0
978 0
748 0
464 0
169 0
267 0
679 0
893 0
876 0
992 0
477 0
481 0
496 0
616 0
546 0
452 0
415 0
532 0
835 0
822 0
142 0
254 0
156 0
212 0
271 0
173 0
111 0
323 0
713 0
953 0
844 0
755 0
947 0
985 0
887 0
645 0
657 0
774 0
372 0
789 0
791 0
583 0
698 0
594 0
568 0
663 0
184 0
399 0
295 0
125 0
334 0
229 0
624 0
631 0
921 0
939 0
